100
2308
60 79 48 35 18 24 87 1 44 65 60 78 11 43 71 79 90 6 94 49 22 91 58 93 55 21 22 31 7 15 17 65 76 9 100 89 50 96 14 38 27 87 29 93 54 12 99 35 27 51 36 44 6 26 91 1 53 8 49 63 18 4 31 55 95 15 77 1 16 98 75 26 26 43 2 11 18 70 3 65 11 74 64 69 26 54 9 51 25 82 98 12 90 75 19 23 78 93 6 7
35 72 88 78 20 96 35 95 74 5 16 91 52 31 21 79 65 6 95 47 87 67 76 73 100 89 12 45 15 75 47 58 27 52 26 74 96 3 49 78 43 1 56 15 28 29 57 35 42 12 40 81 37 14 67 8 4 49 100 72 55 64 45 91 100 32 73 95 9 55 83 30 13 98 52 66 48 72 48 18 86 38 22 89 34 4 7 23 34 22 16 78 19 2 7 8 58 27 50 38
